p edge 46 125
e 1 2
e 1 3
e 1 5
e 1 7
e 1 8
e 1 10
e 1 11
e 1 12
e 1 15
e 1 21
e 1 39
e 1 42
e 2 3
e 2 5
e 2 10
e 2 11
e 2 12
e 2 21
e 3 5
e 3 8
e 3 10
e 3 12
e 3 17
e 3 21
e 3 39
e 4 6
e 4 7
e 4 9
e 4 16
e 4 18
e 4 22
e 4 24
e 4 28
e 4 30
e 4 34
e 4 35
e 4 37
e 4 40
e 4 41
e 5 8
e 5 10
e 5 11
e 5 12
e 5 15
e 5 21
e 6 9
e 6 16
e 6 19
e 6 22
e 6 23
e 6 28
e 6 30
e 6 38
e 7 9
e 7 11
e 7 15
e 7 18
e 7 22
e 7 29
e 7 37
e 7 42
e 8 15
e 8 17
e 8 18
e 8 33
e 9 16
e 9 22
e 9 24
e 9 28
e 9 30
e 9 40
e 9 41
e 10 12
e 10 14
e 10 21
e 10 25
e 10 31
e 11 15
e 11 42
e 12 21
e 13 14
e 13 20
e 13 21
e 13 25
e 13 27
e 13 32
e 13 46
e 14 20
e 14 21
e 14 26
e 14 46
e 15 42
e 16 22
e 16 24
e 16 28
e 16 30
e 16 40
e 16 41
e 17 18
e 17 45
e 18 33
e 18 37
e 18 45
e 20 21
e 20 26
e 20 32
e 21 25
e 22 23
e 22 28
e 22 29
e 22 30
e 22 43
e 22 44
e 23 29
e 23 38
e 23 43
e 23 44
e 24 28
e 27 36
e 28 30
e 29 43
e 29 44
e 34 35
e 40 41
e 43 44
